p cnf 386 460
5 3 -12 21 22 0
5 3 -12 21 -22 0
5 3 -12 -21 23 0
5 3 -12 -21 -23 0
-5 -15 -11 24 25 0
-5 -15 -11 24 -25 0
-5 -15 -11 -24 26 0
-5 -15 -11 -24 -26 0
-12 1 -13 27 28 0
-12 1 -13 27 -28 0
-12 1 -13 -27 29 0
-12 1 -13 -27 -29 0
20 14 18 30 31 0
20 14 18 30 -31 0
20 14 18 -30 32 0
20 14 18 -30 -32 0
-9 19 16 33 34 0
-9 19 16 33 -34 0
-9 19 16 -33 35 0
-9 19 16 -33 -35 0
18 7 -16 36 37 0
18 7 -16 36 -37 0
18 7 -16 -36 38 0
18 7 -16 -36 -38 0
12 -3 19 39 40 0
12 -3 19 39 -40 0
12 -3 19 -39 41 0
12 -3 19 -39 -41 0
17 7 -11 42 43 0
17 7 -11 42 -43 0
17 7 -11 -42 44 0
17 7 -11 -42 -44 0
7 -4 6 45 46 0
7 -4 6 45 -46 0
7 -4 6 -45 47 0
7 -4 6 -45 -47 0
13 -20 7 48 49 0
13 -20 7 48 -49 0
13 -20 7 -48 50 0
13 -20 7 -48 -50 0
13 -9 17 51 52 0
13 -9 17 51 -52 0
13 -9 17 -51 53 0
13 -9 17 -51 -53 0
-2 7 8 54 55 0
-2 7 8 54 -55 0
-2 7 8 -54 56 0
-2 7 8 -54 -56 0
10 -6 -9 57 58 0
10 -6 -9 57 -58 0
10 -6 -9 -57 59 0
10 -6 -9 -57 -59 0
-13 1 17 60 61 0
-13 1 17 60 -61 0
-13 1 17 -60 62 0
-13 1 17 -60 -62 0
7 -18 13 63 64 0
7 -18 13 63 -64 0
7 -18 13 -63 65 0
7 -18 13 -63 -65 0
18 7 19 66 67 0
18 7 19 66 -67 0
18 7 19 -66 68 0
18 7 19 -66 -68 0
7 -9 -11 69 70 0
7 -9 -11 69 -70 0
7 -9 -11 -69 71 0
7 -9 -11 -69 -71 0
-16 -3 -1 72 73 0
-16 -3 -1 72 -73 0
-16 -3 -1 -72 74 0
-16 -3 -1 -72 -74 0
9 18 -10 75 76 0
9 18 -10 75 -76 0
9 18 -10 -75 77 0
9 18 -10 -75 -77 0
13 1 3 78 79 0
13 1 3 78 -79 0
13 1 3 -78 80 0
13 1 3 -78 -80 0
8 3 7 81 82 0
8 3 7 81 -82 0
8 3 7 -81 83 0
8 3 7 -81 -83 0
-9 15 -18 84 85 0
-9 15 -18 84 -85 0
-9 15 -18 -84 86 0
-9 15 -18 -84 -86 0
-12 18 13 87 88 0
-12 18 13 87 -88 0
-12 18 13 -87 89 0
-12 18 13 -87 -89 0
-13 -15 -8 90 91 0
-13 -15 -8 90 -91 0
-13 -15 -8 -90 92 0
-13 -15 -8 -90 -92 0
16 -13 -5 93 94 0
16 -13 -5 93 -94 0
16 -13 -5 -93 95 0
16 -13 -5 -93 -95 0
-4 20 18 96 97 0
-4 20 18 96 -97 0
-4 20 18 -96 98 0
-4 20 18 -96 -98 0
7 -6 8 99 100 0
7 -6 8 99 -100 0
7 -6 8 -99 101 0
7 -6 8 -99 -101 0
-19 -9 -18 102 103 0
-19 -9 -18 102 -103 0
-19 -9 -18 -102 104 0
-19 -9 -18 -102 -104 0
6 -9 7 105 106 0
6 -9 7 105 -106 0
6 -9 7 -105 107 0
6 -9 7 -105 -107 0
-16 12 10 108 109 0
-16 12 10 108 -109 0
-16 12 10 -108 110 0
-16 12 10 -108 -110 0
-20 -4 19 111 112 0
-20 -4 19 111 -112 0
-20 -4 19 -111 113 0
-20 -4 19 -111 -113 0
-19 11 -6 114 115 0
-19 11 -6 114 -115 0
-19 11 -6 -114 116 0
-19 11 -6 -114 -116 0
-18 16 9 117 118 0
-18 16 9 117 -118 0
-18 16 9 -117 119 0
-18 16 9 -117 -119 0
-17 -18 -14 120 121 0
-17 -18 -14 120 -121 0
-17 -18 -14 -120 122 0
-17 -18 -14 -120 -122 0
13 -8 -9 123 124 0
13 -8 -9 123 -124 0
13 -8 -9 -123 125 0
13 -8 -9 -123 -125 0
9 -16 -20 126 127 0
9 -16 -20 126 -127 0
9 -16 -20 -126 128 0
9 -16 -20 -126 -128 0
-7 -4 6 129 130 0
-7 -4 6 129 -130 0
-7 -4 6 -129 131 0
-7 -4 6 -129 -131 0
-7 3 -15 132 133 0
-7 3 -15 132 -133 0
-7 3 -15 -132 134 0
-7 3 -15 -132 -134 0
14 3 -8 135 136 0
14 3 -8 135 -136 0
14 3 -8 -135 137 0
14 3 -8 -135 -137 0
18 11 -8 138 139 0
18 11 -8 138 -139 0
18 11 -8 -138 140 0
18 11 -8 -138 -140 0
-6 10 -16 141 142 0
-6 10 -16 141 -142 0
-6 10 -16 -141 143 0
-6 10 -16 -141 -143 0
20 -7 -18 144 145 0
20 -7 -18 144 -145 0
20 -7 -18 -144 146 0
20 -7 -18 -144 -146 0
10 5 14 147 148 0
10 5 14 147 -148 0
10 5 14 -147 149 0
10 5 14 -147 -149 0
15 6 2 150 151 0
15 6 2 150 -151 0
15 6 2 -150 152 0
15 6 2 -150 -152 0
-2 -19 10 153 154 0
-2 -19 10 153 -154 0
-2 -19 10 -153 155 0
-2 -19 10 -153 -155 0
17 -9 -2 156 157 0
17 -9 -2 156 -157 0
17 -9 -2 -156 158 0
17 -9 -2 -156 -158 0
-10 -19 13 159 160 0
-10 -19 13 159 -160 0
-10 -19 13 -159 161 0
-10 -19 13 -159 -161 0
4 1 -17 162 163 0
4 1 -17 162 -163 0
4 1 -17 -162 164 0
4 1 -17 -162 -164 0
2 -16 -5 165 166 0
2 -16 -5 165 -166 0
2 -16 -5 -165 167 0
2 -16 -5 -165 -167 0
-6 -1 11 168 169 0
-6 -1 11 168 -169 0
-6 -1 11 -168 170 0
-6 -1 11 -168 -170 0
1 -9 18 171 172 0
1 -9 18 171 -172 0
1 -9 18 -171 173 0
1 -9 18 -171 -173 0
17 9 8 174 175 0
17 9 8 174 -175 0
17 9 8 -174 176 0
17 9 8 -174 -176 0
12 -7 4 177 178 0
12 -7 4 177 -178 0
12 -7 4 -177 179 0
12 -7 4 -177 -179 0
-7 -17 -20 180 181 0
-7 -17 -20 180 -181 0
-7 -17 -20 -180 182 0
-7 -17 -20 -180 -182 0
-4 -5 -20 183 184 0
-4 -5 -20 183 -184 0
-4 -5 -20 -183 185 0
-4 -5 -20 -183 -185 0
3 20 -1 186 187 0
3 20 -1 186 -187 0
3 20 -1 -186 188 0
3 20 -1 -186 -188 0
-10 18 8 189 190 0
-10 18 8 189 -190 0
-10 18 8 -189 191 0
-10 18 8 -189 -191 0
1 18 -17 192 193 0
1 18 -17 192 -193 0
1 18 -17 -192 194 0
1 18 -17 -192 -194 0
9 13 7 195 196 0
9 13 7 195 -196 0
9 13 7 -195 197 0
9 13 7 -195 -197 0
-7 -12 -6 198 199 0
-7 -12 -6 198 -199 0
-7 -12 -6 -198 200 0
-7 -12 -6 -198 -200 0
3 -11 -19 201 202 0
3 -11 -19 201 -202 0
3 -11 -19 -201 203 0
3 -11 -19 -201 -203 0
13 -10 -5 204 205 0
13 -10 -5 204 -205 0
13 -10 -5 -204 206 0
13 -10 -5 -204 -206 0
-10 -14 11 207 208 0
-10 -14 11 207 -208 0
-10 -14 11 -207 209 0
-10 -14 11 -207 -209 0
2 -12 -9 210 211 0
2 -12 -9 210 -211 0
2 -12 -9 -210 212 0
2 -12 -9 -210 -212 0
16 2 -7 213 214 0
16 2 -7 213 -214 0
16 2 -7 -213 215 0
16 2 -7 -213 -215 0
-20 5 -8 216 217 0
-20 5 -8 216 -217 0
-20 5 -8 -216 218 0
-20 5 -8 -216 -218 0
-16 1 9 219 220 0
-16 1 9 219 -220 0
-16 1 9 -219 221 0
-16 1 9 -219 -221 0
15 -20 -19 222 223 0
15 -20 -19 222 -223 0
15 -20 -19 -222 224 0
15 -20 -19 -222 -224 0
-7 15 10 225 226 0
-7 15 10 225 -226 0
-7 15 10 -225 227 0
-7 15 10 -225 -227 0
-10 20 8 228 229 0
-10 20 8 228 -229 0
-10 20 8 -228 230 0
-10 20 8 -228 -230 0
13 -20 14 231 232 0
13 -20 14 231 -232 0
13 -20 14 -231 233 0
13 -20 14 -231 -233 0
20 -13 -2 234 235 0
20 -13 -2 234 -235 0
20 -13 -2 -234 236 0
20 -13 -2 -234 -236 0
-13 -7 12 237 238 0
-13 -7 12 237 -238 0
-13 -7 12 -237 239 0
-13 -7 12 -237 -239 0
-10 -18 19 240 241 0
-10 -18 19 240 -241 0
-10 -18 19 -240 242 0
-10 -18 19 -240 -242 0
-5 -3 1 243 244 0
-5 -3 1 243 -244 0
-5 -3 1 -243 245 0
-5 -3 1 -243 -245 0
-2 -12 -16 246 247 0
-2 -12 -16 246 -247 0
-2 -12 -16 -246 248 0
-2 -12 -16 -246 -248 0
12 -19 -20 249 250 0
12 -19 -20 249 -250 0
12 -19 -20 -249 251 0
12 -19 -20 -249 -251 0
11 2 -4 252 253 0
11 2 -4 252 -253 0
11 2 -4 -252 254 0
11 2 -4 -252 -254 0
-20 4 -14 255 256 0
-20 4 -14 255 -256 0
-20 4 -14 -255 257 0
-20 4 -14 -255 -257 0
-15 6 -11 258 259 0
-15 6 -11 258 -259 0
-15 6 -11 -258 260 0
-15 6 -11 -258 -260 0
-4 9 7 261 262 0
-4 9 7 261 -262 0
-4 9 7 -261 263 0
-4 9 7 -261 -263 0
7 19 -3 264 265 0
7 19 -3 264 -265 0
7 19 -3 -264 266 0
7 19 -3 -264 -266 0
19 -13 16 267 268 0
19 -13 16 267 -268 0
19 -13 16 -267 269 0
19 -13 16 -267 -269 0
16 14 -5 270 271 0
16 14 -5 270 -271 0
16 14 -5 -270 272 0
16 14 -5 -270 -272 0
-7 -20 17 273 274 0
-7 -20 17 273 -274 0
-7 -20 17 -273 275 0
-7 -20 17 -273 -275 0
-9 -17 -12 276 277 0
-9 -17 -12 276 -277 0
-9 -17 -12 -276 278 0
-9 -17 -12 -276 -278 0
20 18 -2 279 280 0
20 18 -2 279 -280 0
20 18 -2 -279 281 0
20 18 -2 -279 -281 0
2 14 -11 282 283 0
2 14 -11 282 -283 0
2 14 -11 -282 284 0
2 14 -11 -282 -284 0
19 1 17 285 286 0
19 1 17 285 -286 0
19 1 17 -285 287 0
19 1 17 -285 -287 0
-14 -5 4 288 289 0
-14 -5 4 288 -289 0
-14 -5 4 -288 290 0
-14 -5 4 -288 -290 0
19 -13 -14 291 292 0
19 -13 -14 291 -292 0
19 -13 -14 -291 293 0
19 -13 -14 -291 -293 0
294 295 297 301 309 0
294 295 297 301 -309 0
294 295 297 -301 310 0
294 295 297 -301 -310 0
294 295 -297 302 311 0
294 295 -297 302 -311 0
294 295 -297 -302 312 0
294 295 -297 -302 -312 0
294 -295 298 303 313 0
294 -295 298 303 -313 0
294 -295 298 -303 314 0
294 -295 298 -303 -314 0
294 -295 -298 304 315 0
294 -295 -298 304 -315 0
294 -295 -298 -304 316 0
294 -295 -298 -304 -316 0
-294 296 299 305 317 0
-294 296 299 305 -317 0
-294 296 299 -305 318 0
-294 296 299 -305 -318 0
-294 296 -299 306 319 0
-294 296 -299 306 -319 0
-294 296 -299 -306 320 0
-294 296 -299 -306 -320 0
-294 -296 300 307 321 0
-294 -296 300 307 -321 0
-294 -296 300 -307 322 0
-294 -296 300 -307 -322 0
-294 -296 -300 308 323 0
-294 -296 -300 308 -323 0
-294 -296 -300 -308 324 0
-294 -296 -300 -308 -324 0
325 326 328 332 340 0
325 326 328 332 -340 0
325 326 328 -332 341 0
325 326 328 -332 -341 0
325 326 -328 333 342 0
325 326 -328 333 -342 0
325 326 -328 -333 343 0
325 326 -328 -333 -343 0
325 -326 329 334 344 0
325 -326 329 334 -344 0
325 -326 329 -334 345 0
325 -326 329 -334 -345 0
325 -326 -329 335 346 0
325 -326 -329 335 -346 0
325 -326 -329 -335 347 0
325 -326 -329 -335 -347 0
-325 327 330 336 348 0
-325 327 330 336 -348 0
-325 327 330 -336 349 0
-325 327 330 -336 -349 0
-325 327 -330 337 350 0
-325 327 -330 337 -350 0
-325 327 -330 -337 351 0
-325 327 -330 -337 -351 0
-325 -327 331 338 352 0
-325 -327 331 338 -352 0
-325 -327 331 -338 353 0
-325 -327 331 -338 -353 0
-325 -327 -331 339 354 0
-325 -327 -331 339 -354 0
-325 -327 -331 -339 355 0
-325 -327 -331 -339 -355 0
356 357 359 363 371 0
356 357 359 363 -371 0
356 357 359 -363 372 0
356 357 359 -363 -372 0
356 357 -359 364 373 0
356 357 -359 364 -373 0
356 357 -359 -364 374 0
356 357 -359 -364 -374 0
356 -357 360 365 375 0
356 -357 360 365 -375 0
356 -357 360 -365 376 0
356 -357 360 -365 -376 0
356 -357 -360 366 377 0
356 -357 -360 366 -377 0
356 -357 -360 -366 378 0
356 -357 -360 -366 -378 0
-356 358 361 367 379 0
-356 358 361 367 -379 0
-356 358 361 -367 380 0
-356 358 361 -367 -380 0
-356 358 -361 368 381 0
-356 358 -361 368 -381 0
-356 358 -361 -368 382 0
-356 358 -361 -368 -382 0
-356 -358 362 369 383 0
-356 -358 362 369 -383 0
-356 -358 362 -369 384 0
-356 -358 362 -369 -384 0
-356 -358 -362 370 385 0
-356 -358 -362 370 -385 0
-356 -358 -362 -370 386 0
-356 -358 -362 -370 -386 0

